SDVRP instances/custom_instances/p10_30_split0.vrp
NAME:p10_30_split
BEST_KNOWN: 0
COMMENT: 0
DIMENSION: 867
CAPACITY: 200
EDGE_WEIGHT_FORMAT: FUNCTION
EDGE_WEIGHT_TYPE: EXACT_2D
NODE_COORD_SECTION
1 0.00000 0.00000
2 4 43
3 4 43
4 4 43
5 4 43
6 4 43
7 50 -30
8 50 -30
9 50 -30
10 50 -30
11 -6 49
12 -6 49
13 -6 49
14 -6 49
15 2 -49
16 2 -49
17 2 -49
18 2 -49
19 2 -49
20 2 -49
21 -9 25
22 -9 25
23 -9 25
24 -9 25
25 -36 -42
26 -36 -42
27 -36 -42
28 -36 -42
29 -36 -42
30 -9 -20
31 -9 -20
32 -9 -20
33 -9 -20
34 -9 -20
35 -9 -20
36 5 33
37 5 33
38 5 33
39 32 4
40 32 4
41 32 4
42 32 4
43 32 4
44 32 4
45 32 4
46 34 34
47 34 34
48 34 34
49 34 34
50 34 34
51 34 34
52 20 40
53 20 40
54 20 40
55 20 40
56 20 40
57 19 -30
58 19 -30
59 19 -30
60 19 -30
61 -33 15
62 -33 15
63 -33 15
64 -33 15
65 -33 15
66 -33 15
67 -33 15
68 -22 -44
69 -22 -44
70 -22 -44
71 -22 -44
72 -22 -44
73 14 45
74 14 45
75 14 45
76 14 45
77 14 45
78 14 45
79 -29 -23
80 37 21
81 37 21
82 37 21
83 37 21
84 37 21
85 -32 13
86 -32 13
87 -32 13
88 -32 13
89 -32 13
90 -32 13
91 -32 13
92 48 50
93 48 50
94 48 50
95 48 50
96 48 50
97 48 50
98 -50 9
99 -50 9
100 -50 9
101 -50 9
102 -50 49
103 -50 49
104 -50 49
105 -50 49
106 -50 49
107 -50 49
108 -50 49
109 -2 -33
110 -2 -33
111 -2 -33
112 -50 -24
113 -50 -24
114 -20 32
115 -20 32
116 -20 32
117 2 -8
118 2 -8
119 2 -8
120 37 -26
121 37 -26
122 37 -26
123 6 -29
124 6 -29
125 6 -29
126 -28 -45
127 -28 -45
128 -28 -45
129 -17 -21
130 -17 -21
131 -17 -21
132 -48 -34
133 -48 -34
134 -48 -34
135 -48 -34
136 41 25
137 41 25
138 -20 -17
139 -20 -17
140 -20 -17
141 -20 -17
142 -20 -17
143 -20 -17
144 -36 -42
145 -36 -42
146 -36 -42
147 -36 -42
148 -36 -42
149 -36 -42
150 43 12
151 43 12
152 43 12
153 -3 -35
154 -3 -35
155 -3 -35
156 -3 -35
157 -3 -35
158 43 33
159 43 33
160 43 33
161 43 33
162 43 33
163 26 -44
164 26 -44
165 26 -44
166 10 25
167 10 25
168 10 25
169 10 25
170 0 13
171 0 13
172 0 13
173 0 13
174 18 34
175 18 34
176 18 34
177 50 -13
178 50 -13
179 50 -13
180 50 -13
181 -16 15
182 -16 15
183 -16 15
184 -16 15
185 -38 -33
186 -38 -33
187 -38 -33
188 -38 -33
189 -38 -33
190 -30 19
191 -30 19
192 -30 19
193 -30 19
194 22 9
195 22 9
196 41 23
197 41 23
198 41 23
199 -18 37
200 -18 37
201 -18 37
202 1 -25
203 1 -25
204 33 -46
205 33 -46
206 33 -46
207 33 -46
208 33 -46
209 33 -46
210 33 -46
211 -18 -36
212 -18 -36
213 -18 -36
214 -18 -36
215 16 -11
216 16 -11
217 16 -11
218 16 -11
219 16 -11
220 16 -11
221 15 -37
222 15 -37
223 15 -37
224 15 -37
225 15 -37
226 12 -2
227 12 -2
228 12 -2
229 12 -2
230 12 -2
231 -14 -21
232 -14 -21
233 -14 -21
234 -14 -21
235 12 34
236 12 34
237 39 8
238 39 8
239 39 8
240 39 8
241 -45 -17
242 -11 -12
243 -11 -12
244 -11 -12
245 -11 -12
246 -11 -12
247 20 -3
248 20 -3
249 20 -3
250 35 25
251 35 25
252 35 25
253 11 29
254 11 29
255 11 29
256 11 29
257 11 29
258 11 29
259 11 29
260 38 -47
261 38 -47
262 38 -47
263 38 -47
264 -20 15
265 -20 15
266 -20 15
267 41 33
268 41 33
269 41 33
270 41 33
271 41 33
272 21 -42
273 21 -42
274 21 -42
275 21 -42
276 -10 33
277 -10 33
278 0 -26
279 0 -26
280 0 -26
281 0 -26
282 33 8
283 33 8
284 33 8
285 33 8
286 33 8
287 33 8
288 25 12
289 25 12
290 25 12
291 25 12
292 25 12
293 -14 40
294 -14 40
295 -14 40
296 -14 40
297 -14 40
298 -15 31
299 -15 31
300 -15 31
301 -15 31
302 -15 31
303 -7 -15
304 -7 -15
305 -7 -15
306 -2 -22
307 -2 -22
308 -2 -22
309 -2 -22
310 -2 -22
311 -2 -22
312 3 47
313 3 47
314 3 47
315 3 47
316 3 47
317 19 -37
318 19 -37
319 19 -37
320 19 -37
321 -29 -12
322 -29 -12
323 -29 -12
324 -29 -12
325 -49 18
326 -49 18
327 -49 18
328 -49 18
329 -40 30
330 -40 30
331 -40 30
332 -40 30
333 -40 30
334 26 -25
335 26 -25
336 26 -25
337 26 -25
338 26 -25
339 26 -25
340 -39 7
341 -39 7
342 -39 7
343 -39 7
344 -39 7
345 12 44
346 12 44
347 12 44
348 -3 -38
349 -3 -38
350 -3 -38
351 -3 -38
352 -3 -38
353 -3 -38
354 -3 -38
355 -30 -30
356 -30 -30
357 -30 -30
358 -30 -30
359 -30 -30
360 -48 6
361 -48 6
362 -48 6
363 -48 6
364 -27 24
365 -27 24
366 -27 24
367 -25 -20
368 -25 -20
369 -25 -20
370 -25 -20
371 35 -11
372 35 -11
373 35 -11
374 3 -23
375 3 -23
376 3 -23
377 3 -23
378 3 -23
379 3 -23
380 3 -23
381 14 27
382 14 27
383 14 27
384 14 27
385 -10 31
386 -10 31
387 -10 31
388 -10 31
389 -10 31
390 -10 45
391 -10 45
392 -10 45
393 -10 45
394 -10 45
395 -10 45
396 -27 -37
397 -27 -37
398 -27 -37
399 -27 -37
400 -27 -37
401 -26 -4
402 -26 -4
403 -26 -4
404 -26 -4
405 -33 -25
406 -33 -25
407 -33 -25
408 -33 -25
409 -33 -25
410 -33 -25
411 -33 -25
412 36 9
413 36 9
414 36 9
415 36 9
416 -27 -49
417 -27 -49
418 -27 -49
419 -27 -49
420 -27 -49
421 -14 38
422 -14 38
423 -14 38
424 -14 38
425 -16 48
426 -16 48
427 -16 48
428 10 44
429 10 44
430 10 44
431 -36 32
432 -36 32
433 25 -10
434 25 -10
435 25 -10
436 25 -10
437 25 -10
438 25 -10
439 24 9
440 24 9
441 24 9
442 41 -3
443 41 -3
444 41 -3
445 41 -3
446 -5 -30
447 -5 -30
448 -5 -30
449 33 39
450 33 39
451 33 39
452 33 39
453 50 -7
454 50 -7
455 50 -7
456 50 -7
457 50 -7
458 50 -7
459 50 -7
460 48 48
461 15 -16
462 15 -16
463 15 -16
464 15 -16
465 -43 -42
466 -43 -42
467 -43 -42
468 4 -5
469 4 -5
470 4 -5
471 4 -5
472 4 -5
473 4 -5
474 4 -5
475 -40 21
476 -40 21
477 -40 21
478 -40 21
479 -7 5
480 36 -15
481 36 -15
482 36 -15
483 36 -15
484 36 -15
485 36 -15
486 -7 -1
487 -7 -1
488 -7 -1
489 -7 -1
490 -7 -1
491 -7 -1
492 -42 -9
493 -42 -9
494 -42 -9
495 -42 -9
496 -42 -9
497 -17 -33
498 -17 -33
499 -17 -33
500 -17 -33
501 -17 -33
502 -46 15
503 -46 15
504 -46 15
505 -46 15
506 -46 15
507 -46 15
508 24 49
509 24 49
510 24 49
511 24 49
512 24 49
513 20 28
514 20 28
515 20 28
516 36 13
517 36 13
518 36 13
519 36 13
520 36 13
521 -11 -47
522 -11 -47
523 -11 -47
524 -11 -47
525 -11 -47
526 12 -47
527 -27 43
528 -27 43
529 -24 -1
530 -24 -1
531 -24 -1
532 -26 -47
533 -26 -47
534 -26 -47
535 -27 19
536 -27 19
537 -27 19
538 -27 19
539 38 -3
540 38 -3
541 38 -3
542 38 -3
543 -35 -5
544 -35 -5
545 -35 -5
546 -35 -5
547 -35 -5
548 -4 43
549 -4 43
550 -4 43
551 -8 -11
552 -8 -11
553 -8 -11
554 48 22
555 48 22
556 48 22
557 19 -15
558 19 -15
559 19 -15
560 19 -15
561 -48 -32
562 -48 -32
563 -27 41
564 -27 41
565 -27 41
566 -27 41
567 -27 41
568 -27 41
569 -27 41
570 -37 36
571 -37 36
572 -37 36
573 -37 36
574 -37 36
575 -37 36
576 14 41
577 14 41
578 14 41
579 14 41
580 14 41
581 -42 -48
582 -42 -48
583 24 -39
584 24 -39
585 24 -39
586 24 -39
587 24 -39
588 24 -39
589 -48 42
590 -48 42
591 -48 42
592 -48 42
593 15 -19
594 15 -19
595 -47 -36
596 -47 -36
597 -47 -36
598 -47 -36
599 -47 -36
600 48 -4
601 48 -4
602 48 -4
603 48 -4
604 48 -4
605 28 41
606 28 41
607 28 41
608 28 41
609 -22 2
610 -22 2
611 -22 2
612 -22 2
613 -22 2
614 -22 2
615 -30 24
616 -30 24
617 -30 24
618 -30 24
619 -30 24
620 -30 24
621 25 -3
622 25 -3
623 25 -3
624 25 -3
625 42 24
626 42 24
627 42 24
628 42 24
629 28 27
630 28 27
631 28 27
632 28 27
633 28 27
634 10 -50
635 10 -50
636 10 -50
637 10 -50
638 10 -50
639 10 -50
640 14 -43
641 14 -43
642 -29 -43
643 -29 -43
644 -29 -43
645 -4 33
646 -4 33
647 -4 33
648 -4 33
649 -4 33
650 -4 33
651 -25 20
652 -25 20
653 -25 20
654 -25 20
655 -25 20
656 -25 20
657 48 24
658 48 24
659 48 24
660 48 24
661 -49 -21
662 -49 -21
663 -49 -21
664 -49 -21
665 -49 -21
666 -49 -21
667 -3 8
668 -3 8
669 -3 8
670 -3 8
671 -3 8
672 -3 8
673 -28 5
674 -28 5
675 -28 5
676 -28 5
677 -28 5
678 -28 5
679 47 -15
680 47 -15
681 47 -15
682 47 -15
683 -31 -31
684 -31 -31
685 -31 -31
686 -31 -31
687 -31 -31
688 -31 -31
689 -31 -31
690 -31 -31
691 14 -41
692 14 -41
693 14 -41
694 14 -41
695 42 -26
696 42 -26
697 42 -26
698 42 -26
699 -27 47
700 -27 47
701 -27 47
702 -27 47
703 -42 31
704 -42 31
705 -42 31
706 16 -23
707 16 -23
708 16 -23
709 16 -23
710 2 3
711 2 3
712 2 3
713 2 3
714 2 3
715 -44 28
716 -44 28
717 -44 28
718 -44 28
719 -44 28
720 -44 28
721 -44 28
722 -31 -45
723 -31 -45
724 -20 -50
725 -20 -50
726 -20 -50
727 -20 -50
728 37 -44
729 37 -44
730 37 -44
731 37 -44
732 -1 2
733 -1 2
734 -32 -44
735 -32 -44
736 -32 -44
737 -32 -44
738 -32 -44
739 -32 -44
740 -5 -49
741 -5 -49
742 -5 -49
743 -5 -49
744 16 17
745 16 17
746 16 17
747 16 17
748 16 17
749 -27 -37
750 -27 -37
751 -27 -37
752 -27 -37
753 -7 -8
754 -7 -8
755 -7 -8
756 -7 -8
757 -7 -8
758 -2 23
759 -2 23
760 -2 23
761 -2 23
762 -2 23
763 26 -50
764 26 -50
765 26 -50
766 26 -50
767 13 13
768 13 13
769 13 13
770 13 13
771 13 13
772 13 13
773 -37 34
774 -37 34
775 -37 34
776 -37 34
777 44 28
778 44 28
779 44 28
780 16 45
781 16 45
782 16 45
783 7 6
784 7 6
785 7 6
786 7 6
787 7 6
788 7 6
789 14 -12
790 14 -12
791 14 -12
792 14 -12
793 14 -12
794 14 -12
795 14 -12
796 -43 -12
797 -43 -12
798 -43 -12
799 -43 -12
800 9 -42
801 9 -42
802 9 -42
803 9 -42
804 -9 37
805 -9 37
806 -9 37
807 -8 40
808 -8 40
809 -8 40
810 -8 40
811 38 34
812 38 34
813 38 34
814 38 34
815 -11 -16
816 -11 -16
817 -11 -16
818 -11 -16
819 -11 -16
820 -11 -16
821 -11 -16
822 -11 -16
823 6 -47
824 6 -47
825 6 -47
826 6 -47
827 24 -12
828 24 -12
829 24 -12
830 24 -12
831 -18 37
832 -18 37
833 -18 37
834 -18 37
835 -18 37
836 37 7
837 37 7
838 37 7
839 37 7
840 37 7
841 -37 -18
842 -37 -18
843 -37 -18
844 -37 -18
845 -37 -18
846 -25 -32
847 -25 -32
848 -25 -32
849 -25 -32
850 -25 -32
851 -25 -32
852 -25 -32
853 -26 9
854 -26 9
855 -26 9
856 -26 9
857 -26 9
858 -26 9
859 -35 9
860 -35 9
861 -9 -6
862 -9 -6
863 -9 -6
864 8 -7
865 8 -7
866 8 -7
867 8 -7
DEMAND_SECTION
1 0
2 40
3 40
4 2
5 2
6 1
7 40
8 40
9 10
10 2
11 40
12 20
13 10
14 1
15 40
16 2
17 2
18 2
19 2
20 1
21 40
22 2
23 2
24 2
25 40
26 20
27 2
28 2
29 1
30 20
31 10
32 2
33 2
34 2
35 1
36 40
37 10
38 2
39 40
40 10
41 2
42 2
43 2
44 2
45 1
46 40
47 20
48 2
49 2
50 2
51 2
52 40
53 10
54 2
55 2
56 1
57 40
58 40
59 2
60 1
61 40
62 40
63 10
64 2
65 2
66 2
67 1
68 20
69 2
70 2
71 2
72 1
73 40
74 40
75 10
76 2
77 2
78 1
79 40
80 20
81 10
82 2
83 2
84 2
85 40
86 20
87 10
88 2
89 2
90 2
91 1
92 40
93 10
94 2
95 2
96 2
97 1
98 40
99 40
100 2
101 1
102 40
103 40
104 2
105 2
106 2
107 2
108 1
109 40
110 20
111 10
112 20
113 10
114 20
115 10
116 1
117 40
118 40
119 1
120 40
121 20
122 1
123 40
124 40
125 2
126 40
127 40
128 20
129 40
130 40
131 2
132 40
133 40
134 10
135 2
136 40
137 40
138 40
139 40
140 10
141 2
142 2
143 1
144 40
145 10
146 2
147 2
148 2
149 1
150 40
151 40
152 20
153 40
154 10
155 2
156 2
157 2
158 40
159 2
160 2
161 2
162 2
163 40
164 2
165 1
166 40
167 40
168 10
169 2
170 40
171 40
172 10
173 2
174 40
175 40
176 1
177 40
178 10
179 2
180 1
181 40
182 40
183 10
184 2
185 40
186 40
187 2
188 2
189 2
190 40
191 20
192 2
193 2
194 20
195 10
196 40
197 10
198 2
199 40
200 20
201 1
202 20
203 10
204 40
205 40
206 10
207 2
208 2
209 2
210 2
211 20
212 10
213 2
214 1
215 40
216 20
217 2
218 2
219 2
220 2
221 40
222 40
223 10
224 2
225 1
226 40
227 10
228 2
229 2
230 1
231 20
232 2
233 2
234 1
235 40
236 10
237 40
238 40
239 2
240 2
241 40
242 20
243 2
244 2
245 2
246 1
247 20
248 10
249 1
250 40
251 20
252 2
253 40
254 10
255 2
256 2
257 2
258 2
259 1
260 40
261 40
262 2
263 2
264 40
265 10
266 1
267 40
268 40
269 10
270 2
271 2
272 40
273 20
274 10
275 2
276 40
277 20
278 40
279 40
280 10
281 2
282 40
283 40
284 10
285 2
286 2
287 1
288 40
289 40
290 10
291 2
292 2
293 20
294 10
295 2
296 2
297 1
298 20
299 10
300 2
301 2
302 2
303 40
304 2
305 2
306 20
307 10
308 2
309 2
310 2
311 1
312 40
313 40
314 10
315 2
316 1
317 40
318 20
319 10
320 2
321 40
322 20
323 10
324 2
325 20
326 10
327 2
328 2
329 40
330 20
331 2
332 2
333 1
334 40
335 10
336 2
337 2
338 2
339 1
340 40
341 40
342 10
343 2
344 1
345 20
346 10
347 1
348 40
349 20
350 2
351 2
352 2
353 2
354 1
355 20
356 10
357 2
358 2
359 1
360 40
361 2
362 2
363 1
364 40
365 40
366 2
367 40
368 40
369 2
370 1
371 40
372 20
373 2
374 20
375 10
376 2
377 2
378 2
379 2
380 1
381 20
382 2
383 2
384 2
385 40
386 40
387 10
388 2
389 1
390 40
391 2
392 2
393 2
394 2
395 1
396 40
397 20
398 2
399 2
400 2
401 40
402 40
403 2
404 2
405 20
406 10
407 2
408 2
409 2
410 2
411 1
412 40
413 10
414 2
415 1
416 40
417 20
418 10
419 2
420 1
421 40
422 20
423 2
424 1
425 20
426 10
427 1
428 40
429 20
430 2
431 20
432 10
433 40
434 20
435 2
436 2
437 2
438 1
439 40
440 40
441 20
442 40
443 40
444 10
445 2
446 40
447 40
448 20
449 40
450 40
451 10
452 2
453 40
454 40
455 10
456 2
457 2
458 2
459 1
460 40
461 40
462 20
463 2
464 1
465 40
466 10
467 1
468 40
469 20
470 10
471 2
472 2
473 2
474 2
475 40
476 40
477 10
478 1
479 40
480 40
481 10
482 2
483 2
484 2
485 2
486 40
487 10
488 2
489 2
490 2
491 1
492 40
493 40
494 10
495 2
496 2
497 20
498 10
499 2
500 2
501 2
502 20
503 10
504 2
505 2
506 2
507 1
508 40
509 2
510 2
511 2
512 1
513 20
514 10
515 2
516 40
517 2
518 2
519 2
520 1
521 40
522 10
523 2
524 2
525 1
526 40
527 40
528 10
529 40
530 10
531 2
532 40
533 10
534 2
535 40
536 40
537 2
538 1
539 40
540 20
541 10
542 1
543 40
544 40
545 10
546 2
547 2
548 20
549 10
550 2
551 40
552 40
553 1
554 40
555 20
556 10
557 40
558 20
559 10
560 1
561 40
562 2
563 40
564 20
565 2
566 2
567 2
568 2
569 1
570 40
571 40
572 10
573 2
574 2
575 2
576 40
577 20
578 2
579 2
580 2
581 40
582 20
583 40
584 2
585 2
586 2
587 2
588 1
589 40
590 20
591 2
592 1
593 40
594 1
595 40
596 10
597 2
598 2
599 1
600 20
601 10
602 2
603 2
604 1
605 20
606 2
607 2
608 2
609 40
610 20
611 10
612 2
613 2
614 1
615 40
616 10
617 2
618 2
619 2
620 1
621 40
622 2
623 2
624 1
625 40
626 40
627 10
628 1
629 40
630 40
631 10
632 2
633 2
634 40
635 40
636 10
637 2
638 2
639 1
640 40
641 2
642 40
643 20
644 2
645 40
646 10
647 2
648 2
649 2
650 2
651 40
652 40
653 2
654 2
655 2
656 2
657 40
658 20
659 2
660 1
661 20
662 10
663 2
664 2
665 2
666 1
667 40
668 20
669 2
670 2
671 2
672 1
673 40
674 10
675 2
676 2
677 2
678 1
679 40
680 10
681 2
682 1
683 40
684 40
685 10
686 2
687 2
688 2
689 2
690 1
691 40
692 20
693 2
694 1
695 40
696 20
697 10
698 1
699 20
700 2
701 2
702 2
703 40
704 2
705 1
706 40
707 20
708 10
709 2
710 40
711 40
712 2
713 2
714 1
715 40
716 40
717 10
718 2
719 2
720 2
721 1
722 20
723 10
724 40
725 10
726 2
727 2
728 40
729 40
730 2
731 2
732 40
733 20
734 40
735 40
736 10
737 2
738 2
739 2
740 40
741 40
742 2
743 2
744 40
745 2
746 2
747 2
748 1
749 40
750 20
751 10
752 2
753 20
754 10
755 2
756 2
757 2
758 40
759 40
760 2
761 2
762 2
763 20
764 10
765 2
766 2
767 20
768 2
769 2
770 2
771 2
772 1
773 20
774 2
775 2
776 1
777 40
778 2
779 1
780 40
781 40
782 1
783 40
784 2
785 2
786 2
787 2
788 1
789 40
790 10
791 2
792 2
793 2
794 2
795 1
796 40
797 20
798 2
799 1
800 40
801 20
802 2
803 1
804 20
805 10
806 2
807 40
808 10
809 2
810 1
811 40
812 40
813 10
814 2
815 40
816 40
817 10
818 2
819 2
820 2
821 2
822 1
823 40
824 40
825 10
826 1
827 20
828 2
829 2
830 2
831 40
832 40
833 10
834 2
835 1
836 40
837 2
838 2
839 2
840 2
841 40
842 20
843 10
844 2
845 2
846 40
847 40
848 10
849 2
850 2
851 2
852 2
853 40
854 20
855 2
856 2
857 2
858 2
859 40
860 40
861 40
862 2
863 2
864 20
865 2
866 2
867 1
DEPOT_SECTION
1
-1
EOF