SDVRP instances/custom_instances/p10_30_split0.sol
866 -9 6 8 7 678 680 681 679 480 484 479 -21 20 22 23 384 387 388 385 386 276 275 -31 30 32 34 33 447 445 446 123 122 124 -37 35 36 234 235 175 174 173 381 382 383 -44 43 40 39 38 41 42 837 836 839 838 835 237 239 238 236 -47 92 95 94 96 93 91 459 159 158 157 161 160 268 269 267 -49 45 48 50 46 811 812 813 810 270 266 -53 55 54 51 52 780 779 781 576 575 578 -62 61 60 66 65 64 63 86 84 85 87 88 90 89 855 854 853 856 -78 405 404 689 683 685 687 682 688 686 358 354 355 357 -81 83 79 80 82 250 251 249 628 630 632 631 629 771 769 767 768 -105 107 103 104 102 106 101 591 589 588 590 703 704 702 330 331 -110 108 109 347 350 352 349 348 353 351 155 152 153 156 154 -115 113 114 830 834 831 832 198 200 298 297 300 301 299 -116 117 118 860 861 862 487 489 488 490 486 485 -121 119 120 694 696 697 695 482 481 483 372 370 371 -127 125 126 531 533 69 67 211 213 210 500 499 -135 136 624 625 195 -167 257 253 4 1 3 2 5 312 314 311 315 313 -168 166 165 254 256 255 258 252 380 743 747 744 746 745 784 786 -170 172 169 171 760 757 761 758 670 669 667 -176 177 178 179 458 455 457 452 456 454 453 600 601 602 599 603 540 -182 183 364 363 190 192 191 189 534 537 536 -184 186 188 185 187 464 466 465 580 581 848 -193 194 440 439 438 766 770 787 785 782 783 -197 196 627 626 776 777 778 659 656 657 658 555 554 553 -204 203 207 208 206 209 762 765 763 764 163 162 164 319 317 318 -212 68 71 70 532 418 416 415 417 419 726 725 724 723 521 523 520 522 524 -221 222 693 691 692 690 639 640 799 801 -223 224 220 271 273 274 272 586 583 587 582 316 -227 228 229 226 225 214 216 217 219 215 218 792 794 788 865 864 866 863 -241 245 816 128 129 130 230 231 233 29 303 302 304 -243 242 244 141 138 140 142 139 137 367 366 368 369 -246 248 247 433 434 435 436 432 437 829 826 827 828 558 557 556 559 -265 264 535 616 619 617 614 615 618 365 651 652 653 654 650 655 -284 281 285 286 283 282 290 291 287 288 289 -307 309 306 310 308 305 280 278 277 279 202 201 376 374 373 375 379 377 378 -320 798 795 797 796 491 492 494 495 493 -321 544 543 542 545 546 401 402 400 403 -323 322 240 662 660 663 661 664 665 112 111 840 841 842 843 844 -335 337 338 333 59 58 57 56 705 708 706 707 -336 334 728 730 729 727 261 262 259 260 205 585 584 -356 684 737 734 735 733 736 738 722 721 641 642 643 -361 359 360 362 98 97 100 99 325 326 324 327 506 501 503 502 505 504 -410 407 408 409 406 595 596 594 597 598 132 131 133 134 560 561 -411 413 414 412 151 150 149 517 515 519 518 516 -429 427 428 346 345 344 77 74 72 73 75 76 577 579 -430 772 774 328 329 332 716 717 714 719 720 715 718 -443 442 444 441 541 539 538 621 622 623 620 -470 468 473 471 467 472 469 592 593 460 463 461 462 789 790 791 793 -474 476 477 475 431 775 773 569 574 570 571 573 572 -478 263 180 181 666 -497 496 498 25 145 146 26 28 143 147 148 144 24 27 851 846 850 849 -507 511 509 508 510 604 605 607 606 450 449 451 448 512 514 513 -551 552 550 814 815 754 756 755 753 752 -565 564 567 566 563 568 562 526 527 698 700 701 699 424 426 425 199 833 -610 611 613 608 530 528 529 673 677 672 676 857 852 -612 609 675 674 340 339 342 343 341 859 858 -647 644 646 649 808 807 809 806 296 295 292 293 294 423 420 422 421 668 671 -713 711 712 709 710 731 732 -741 739 740 742 17 14 15 19 16 18 825 822 824 -759 648 645 547 548 549 12 10 11 13 393 394 391 389 392 390 804 805 803 -802 800 525 633 636 637 638 634 635 823 -821 818 817 819 820 232 399 397 751 396 398 750 749 748 395 847 845 0 





OBJ=
5719.142
BEST_KNOWN=
0.000